c Standarized MaxSat Instance
c{
c "sha1sum": "5580b60598da55a90338e9c946c08cad29789f3c",
c "nvars": 140,
c "ncls": 1260,
c "nhards": 0,
c "nhard_len_stats":
c    { "min": 0, "max": 0, "ave": 0.00,
c      "stddev": 0.00 },
c "nsofts": 1260,
c "nsoft_len_stats":
c    { "min": 2, "max": 2, "ave": 2.00,
c      "stddev": 0.00 },
c "nsoft_wts": 1,
c "soft_wt_stats":
c    { "min": 1, "max": 1, "ave": 1.00,
c      "stddev": 0.00 }
c}
c------------------------------------------------------------
c strEdges: 189  randomEdges: 441 
c degrees:  2  3 
c girth: 10 max: 8.032766  
c Hgirth mixed MAXCUT instance
c generated from an undirected graph
c to solve unweighted MaxCut
p wcnf 140 1260 1261
1 76 104 0
1 -76 -104 0
1 76 52 0
1 -76 -52 0
1 76 129 0
1 -76 -129 0
1 122 1 0
1 -122 -1 0
1 122 47 0
1 -122 -47 0
1 122 3 0
1 -122 -3 0
1 130 136 0
1 -130 -136 0
1 130 8 0
1 -130 -8 0
1 130 21 0
1 -130 -21 0
1 91 12 0
1 -91 -12 0
1 91 5 0
1 -91 -5 0
1 63 135 0
1 -63 -135 0
1 63 28 0
1 -63 -28 0
1 63 124 0
1 -63 -124 0
1 64 90 0
1 -64 -90 0
1 64 72 0
1 -64 -72 0
1 45 87 0
1 -45 -87 0
1 45 22 0
1 -45 -22 0
1 45 132 0
1 -45 -132 0
1 67 24 0
1 -67 -24 0
1 67 109 0
1 -67 -109 0
1 67 102 0
1 -67 -102 0
1 59 102 0
1 -59 -102 0
1 59 124 0
1 -59 -124 0
1 59 1 0
1 -59 -1 0
1 32 21 0
1 -32 -21 0
1 32 93 0
1 -32 -93 0
1 32 135 0
1 -32 -135 0
1 10 20 0
1 -10 -20 0
1 10 24 0
1 -10 -24 0
1 10 12 0
1 -10 -12 0
1 139 80 0
1 -139 -80 0
1 139 72 0
1 -139 -72 0
1 139 54 0
1 -139 -54 0
1 115 65 0
1 -115 -65 0
1 115 20 0
1 -115 -20 0
1 115 35 0
1 -115 -35 0
1 60 118 0
1 -60 -118 0
1 60 119 0
1 -60 -119 0
1 60 39 0
1 -60 -39 0
1 11 83 0
1 -11 -83 0
1 11 13 0
1 -11 -13 0
1 11 95 0
1 -11 -95 0
1 40 28 0
1 -40 -28 0
1 40 33 0
1 -40 -33 0
1 7 33 0
1 -7 -33 0
1 7 84 0
1 -7 -84 0
1 7 71 0
1 -7 -71 0
1 36 99 0
1 -36 -99 0
1 36 95 0
1 -36 -95 0
1 36 58 0
1 -36 -58 0
1 44 34 0
1 -44 -34 0
1 44 87 0
1 -44 -87 0
1 44 83 0
1 -44 -83 0
1 133 54 0
1 -133 -54 0
1 133 4 0
1 -133 -4 0
1 51 30 0
1 -51 -30 0
1 51 103 0
1 -51 -103 0
1 69 8 0
1 -69 -8 0
1 69 54 0
1 -69 -54 0
1 69 48 0
1 -69 -48 0
1 2 88 0
1 -2 -88 0
1 2 99 0
1 -2 -99 0
1 128 52 0
1 -128 -52 0
1 128 79 0
1 -128 -79 0
1 128 48 0
1 -128 -48 0
1 42 5 0
1 -42 -5 0
1 42 83 0
1 -42 -83 0
1 92 17 0
1 -92 -17 0
1 92 28 0
1 -92 -28 0
1 46 109 0
1 -46 -109 0
1 46 15 0
1 -46 -15 0
1 46 94 0
1 -46 -94 0
1 27 98 0
1 -27 -98 0
1 27 52 0
1 -27 -52 0
1 25 95 0
1 -25 -95 0
1 25 70 0
1 -25 -70 0
1 74 119 0
1 -74 -119 0
1 74 77 0
1 -74 -77 0
1 74 71 0
1 -74 -71 0
1 85 70 0
1 -85 -70 0
1 85 94 0
1 -85 -94 0
1 106 35 0
1 -106 -35 0
1 106 77 0
1 -106 -77 0
1 53 72 0
1 -53 -72 0
1 53 99 0
1 -53 -99 0
1 53 114 0
1 -53 -114 0
1 131 78 0
1 -131 -78 0
1 131 39 0
1 -131 -39 0
1 131 61 0
1 -131 -61 0
1 37 26 0
1 -37 -26 0
1 37 15 0
1 -37 -15 0
1 37 80 0
1 -37 -80 0
1 23 84 0
1 -23 -84 0
1 23 112 0
1 -23 -112 0
1 23 98 0
1 -23 -98 0
1 101 124 0
1 -101 -124 0
1 101 126 0
1 -101 -126 0
1 101 56 0
1 -101 -56 0
1 113 112 0
1 -113 -112 0
1 113 19 0
1 -113 -19 0
1 113 65 0
1 -113 -65 0
1 138 13 0
1 -138 -13 0
1 138 4 0
1 -138 -4 0
1 49 77 0
1 -49 -77 0
1 49 41 0
1 -49 -41 0
1 9 81 0
1 -9 -81 0
1 9 18 0
1 -9 -18 0
1 105 58 0
1 -105 -58 0
1 105 20 0
1 -105 -20 0
1 105 21 0
1 -105 -21 0
1 116 41 0
1 -116 -41 0
1 116 89 0
1 -116 -89 0
1 116 86 0
1 -116 -86 0
1 55 3 0
1 -55 -3 0
1 55 78 0
1 -55 -78 0
1 108 39 0
1 -108 -39 0
1 108 17 0
1 -108 -17 0
1 108 26 0
1 -108 -26 0
1 96 19 0
1 -96 -19 0
1 96 81 0
1 -96 -81 0
1 96 118 0
1 -96 -118 0
1 107 114 0
1 -107 -114 0
1 107 110 0
1 -107 -110 0
1 107 102 0
1 -107 -102 0
1 120 103 0
1 -120 -103 0
1 120 86 0
1 -120 -86 0
1 120 88 0
1 -120 -88 0
1 6 61 0
1 -6 -61 0
1 6 12 0
1 -6 -12 0
1 6 30 0
1 -6 -30 0
1 127 132 0
1 -127 -132 0
1 127 80 0
1 -127 -80 0
1 127 65 0
1 -127 -65 0
1 31 129 0
1 -31 -129 0
1 31 90 0
1 -31 -90 0
1 31 24 0
1 -31 -24 0
1 82 71 0
1 -82 -71 0
1 82 90 0
1 -82 -90 0
1 117 126 0
1 -117 -126 0
1 117 98 0
1 -117 -98 0
1 97 110 0
1 -97 -110 0
1 97 16 0
1 -97 -16 0
1 97 38 0
1 -97 -38 0
1 134 121 0
1 -134 -121 0
1 134 89 0
1 -134 -89 0
1 134 19 0
1 -134 -19 0
1 75 18 0
1 -75 -18 0
1 75 70 0
1 -75 -70 0
1 75 38 0
1 -75 -38 0
1 137 93 0
1 -137 -93 0
1 137 104 0
1 -137 -104 0
1 137 73 0
1 -137 -73 0
1 111 73 0
1 -111 -73 0
1 111 5 0
1 -111 -5 0
1 111 81 0
1 -111 -81 0
1 50 89 0
1 -50 -89 0
1 50 109 0
1 -50 -109 0
1 123 15 0
1 -123 -15 0
1 123 126 0
1 -123 -126 0
1 123 73 0
1 -123 -73 0
1 29 86 0
1 -29 -86 0
1 29 34 0
1 -29 -34 0
1 66 22 0
1 -66 -22 0
1 66 1 0
1 -66 -1 0
1 66 136 0
1 -66 -136 0
1 68 48 0
1 -68 -48 0
1 68 121 0
1 -68 -121 0
1 68 16 0
1 -68 -16 0
1 100 16 0
1 -100 -16 0
1 100 61 0
1 -100 -61 0
1 100 93 0
1 -100 -93 0
1 140 56 0
1 -140 -56 0
1 140 35 0
1 -140 -35 0
1 140 13 0
1 -140 -13 0
1 43 47 0
1 -43 -47 0
1 43 84 0
1 -43 -84 0
1 43 88 0
1 -43 -88 0
1 62 4 0
1 -62 -4 0
1 62 18 0
1 -62 -18 0
1 62 103 0
1 -62 -103 0
1 14 38 0
1 -14 -38 0
1 14 33 0
1 -14 -33 0
1 14 87 0
1 -14 -87 0
1 125 79 0
1 -125 -79 0
1 125 34 0
1 -125 -34 0
1 57 94 0
1 -57 -94 0
1 57 3 0
1 -57 -3 0
1 57 79 0
1 -57 -79 0
1 11 116 0
1 -11 -116 0
1 102 41 0
1 -102 -41 0
1 104 20 0
1 -104 -20 0
1 82 65 0
1 -82 -65 0
1 53 34 0
1 -53 -34 0
1 27 14 0
1 -27 -14 0
1 101 52 0
1 -101 -52 0
1 68 140 0
1 -68 -140 0
1 100 30 0
1 -100 -30 0
1 1 34 0
1 -1 -34 0
1 74 98 0
1 -74 -98 0
1 6 22 0
1 -6 -22 0
1 55 107 0
1 -55 -107 0
1 75 35 0
1 -75 -35 0
1 72 19 0
1 -72 -19 0
1 52 84 0
1 -52 -84 0
1 119 38 0
1 -119 -38 0
1 140 5 0
1 -140 -5 0
1 6 75 0
1 -6 -75 0
1 82 77 0
1 -82 -77 0
1 122 24 0
1 -122 -24 0
1 74 137 0
1 -74 -137 0
1 85 12 0
1 -85 -12 0
1 137 14 0
1 -137 -14 0
1 139 20 0
1 -139 -20 0
1 111 77 0
1 -111 -77 0
1 80 48 0
1 -80 -48 0
1 120 28 0
1 -120 -28 0
1 85 111 0
1 -85 -111 0
1 43 3 0
1 -43 -3 0
1 18 89 0
1 -18 -89 0
1 7 65 0
1 -7 -65 0
1 7 28 0
1 -7 -28 0
1 102 35 0
1 -102 -35 0
1 74 33 0
1 -74 -33 0
1 135 33 0
1 -135 -33 0
1 139 112 0
1 -139 -112 0
1 51 82 0
1 -51 -82 0
1 92 109 0
1 -92 -109 0
1 28 109 0
1 -28 -109 0
1 23 134 0
1 -23 -134 0
1 11 78 0
1 -11 -78 0
1 121 48 0
1 -121 -48 0
1 115 138 0
1 -115 -138 0
1 20 30 0
1 -20 -30 0
1 2 48 0
1 -2 -48 0
1 127 90 0
1 -127 -90 0
1 138 12 0
1 -138 -12 0
1 7 66 0
1 -7 -66 0
1 89 86 0
1 -89 -86 0
1 90 112 0
1 -90 -112 0
1 17 94 0
1 -17 -94 0
1 30 18 0
1 -30 -18 0
1 88 47 0
1 -88 -47 0
1 51 71 0
1 -51 -71 0
1 126 48 0
1 -126 -48 0
1 114 132 0
1 -114 -132 0
1 128 31 0
1 -128 -31 0
1 136 70 0
1 -136 -70 0
1 122 36 0
1 -122 -36 0
1 66 73 0
1 -66 -73 0
1 36 121 0
1 -36 -121 0
1 52 48 0
1 -52 -48 0
1 43 13 0
1 -43 -13 0
1 128 61 0
1 -128 -61 0
1 97 99 0
1 -97 -99 0
1 84 79 0
1 -84 -79 0
1 128 14 0
1 -128 -14 0
1 108 43 0
1 -108 -43 0
1 91 103 0
1 -91 -103 0
1 115 93 0
1 -115 -93 0
1 115 7 0
1 -115 -7 0
1 70 129 0
1 -70 -129 0
1 113 116 0
1 -113 -116 0
1 140 33 0
1 -140 -33 0
1 85 39 0
1 -85 -39 0
1 115 83 0
1 -115 -83 0
1 36 48 0
1 -36 -48 0
1 63 92 0
1 -63 -92 0
1 64 38 0
1 -64 -38 0
1 101 107 0
1 -101 -107 0
1 133 20 0
1 -133 -20 0
1 98 121 0
1 -98 -121 0
1 131 135 0
1 -131 -135 0
1 101 83 0
1 -101 -83 0
1 121 18 0
1 -121 -18 0
1 50 54 0
1 -50 -54 0
1 136 5 0
1 -136 -5 0
1 64 136 0
1 -64 -136 0
1 80 71 0
1 -80 -71 0
1 66 52 0
1 -66 -52 0
1 2 134 0
1 -2 -134 0
1 96 1 0
1 -96 -1 0
1 131 124 0
1 -131 -124 0
1 2 28 0
1 -2 -28 0
1 9 80 0
1 -9 -80 0
1 35 47 0
1 -35 -47 0
1 131 109 0
1 -131 -109 0
1 41 3 0
1 -41 -3 0
1 11 46 0
1 -11 -46 0
1 111 70 0
1 -111 -70 0
1 36 129 0
1 -36 -129 0
1 52 78 0
1 -52 -78 0
1 112 19 0
1 -112 -19 0
1 85 48 0
1 -85 -48 0
1 45 16 0
1 -45 -16 0
1 76 23 0
1 -76 -23 0
1 105 123 0
1 -105 -123 0
1 91 105 0
1 -91 -105 0
1 21 86 0
1 -21 -86 0
1 52 61 0
1 -52 -61 0
1 31 1 0
1 -31 -1 0
1 45 42 0
1 -45 -42 0
1 14 65 0
1 -14 -65 0
1 41 110 0
1 -41 -110 0
1 46 24 0
1 -46 -24 0
1 96 83 0
1 -96 -83 0
1 53 101 0
1 -53 -101 0
1 128 119 0
1 -128 -119 0
1 91 136 0
1 -91 -136 0
1 91 42 0
1 -91 -42 0
1 88 15 0
1 -88 -15 0
1 17 72 0
1 -17 -72 0
1 69 31 0
1 -69 -31 0
1 135 22 0
1 -135 -22 0
1 42 46 0
1 -42 -46 0
1 59 18 0
1 -59 -18 0
1 24 124 0
1 -24 -124 0
1 18 94 0
1 -18 -94 0
1 52 38 0
1 -52 -38 0
1 42 30 0
1 -42 -30 0
1 60 57 0
1 -60 -57 0
1 70 110 0
1 -70 -110 0
1 42 100 0
1 -42 -100 0
1 30 72 0
1 -30 -72 0
1 87 30 0
1 -87 -30 0
1 65 114 0
1 -65 -114 0
1 27 125 0
1 -27 -125 0
1 7 107 0
1 -7 -107 0
1 76 1 0
1 -76 -1 0
1 104 24 0
1 -104 -24 0
1 127 118 0
1 -127 -118 0
1 122 19 0
1 -122 -19 0
1 69 49 0
1 -69 -49 0
1 52 93 0
1 -52 -93 0
1 2 71 0
1 -2 -71 0
1 67 93 0
1 -67 -93 0
1 59 72 0
1 -59 -72 0
1 9 89 0
1 -9 -89 0
1 7 25 0
1 -7 -25 0
1 127 99 0
1 -127 -99 0
1 49 135 0
1 -49 -135 0
1 8 58 0
1 -8 -58 0
1 97 26 0
1 -97 -26 0
1 36 111 0
1 -36 -111 0
1 33 5 0
1 -33 -5 0
1 128 81 0
1 -128 -81 0
1 60 85 0
1 -60 -85 0
1 112 81 0
1 -112 -81 0
1 10 50 0
1 -10 -50 0
1 37 121 0
1 -37 -121 0
1 133 126 0
1 -133 -126 0
1 12 95 0
1 -12 -95 0
1 2 125 0
1 -2 -125 0
1 63 65 0
1 -63 -65 0
1 69 125 0
1 -69 -125 0
1 117 19 0
1 -117 -19 0
1 42 127 0
1 -42 -127 0
1 32 120 0
1 -32 -120 0
1 11 110 0
1 -11 -110 0
1 138 108 0
1 -138 -108 0
1 2 13 0
1 -2 -13 0
1 136 52 0
1 -136 -52 0
1 14 88 0
1 -14 -88 0
1 92 5 0
1 -92 -5 0
1 111 102 0
1 -111 -102 0
1 23 68 0
1 -23 -68 0
1 138 18 0
1 -138 -18 0
1 25 52 0
1 -25 -52 0
1 67 40 0
1 -67 -40 0
1 109 70 0
1 -109 -70 0
1 136 26 0
1 -136 -26 0
1 130 14 0
1 -130 -14 0
1 115 19 0
1 -115 -19 0
1 139 47 0
1 -139 -47 0
1 116 65 0
1 -116 -65 0
1 45 43 0
1 -45 -43 0
1 7 6 0
1 -7 -6 0
1 99 72 0
1 -99 -72 0
1 80 114 0
1 -80 -114 0
1 27 61 0
1 -27 -61 0
1 63 104 0
1 -63 -104 0
1 49 99 0
1 -49 -99 0
1 112 86 0
1 -112 -86 0
1 51 113 0
1 -51 -113 0
1 77 22 0
1 -77 -22 0
1 133 75 0
1 -133 -75 0
1 135 90 0
1 -135 -90 0
1 104 54 0
1 -104 -54 0
1 92 79 0
1 -92 -79 0
1 14 72 0
1 -14 -72 0
1 70 48 0
1 -70 -48 0
1 31 4 0
1 -31 -4 0
1 138 70 0
1 -138 -70 0
1 32 80 0
1 -32 -80 0
1 63 2 0
1 -63 -2 0
1 32 104 0
1 -32 -104 0
1 50 114 0
1 -50 -114 0
1 86 56 0
1 -86 -56 0
1 131 71 0
1 -131 -71 0
1 46 135 0
1 -46 -135 0
1 45 78 0
1 -45 -78 0
1 138 72 0
1 -138 -72 0
1 41 4 0
1 -41 -4 0
1 99 8 0
1 -99 -8 0
1 37 48 0
1 -37 -48 0
1 49 86 0
1 -49 -86 0
1 138 81 0
1 -138 -81 0
1 133 86 0
1 -133 -86 0
1 67 17 0
1 -67 -17 0
1 59 77 0
1 -59 -77 0
1 5 94 0
1 -5 -94 0
1 106 4 0
1 -106 -4 0
1 139 75 0
1 -139 -75 0
1 60 30 0
1 -60 -30 0
1 111 8 0
1 -111 -8 0
1 116 54 0
1 -116 -54 0
1 99 98 0
1 -99 -98 0
1 14 118 0
1 -14 -118 0
1 35 41 0
1 -35 -41 0
1 85 6 0
1 -85 -6 0
1 36 77 0
1 -36 -77 0
1 44 85 0
1 -44 -85 0
1 106 22 0
1 -106 -22 0
1 44 42 0
1 -44 -42 0
1 116 82 0
1 -116 -82 0
1 136 112 0
1 -136 -112 0
1 54 73 0
1 -54 -73 0
1 69 16 0
1 -69 -16 0
1 88 70 0
1 -88 -70 0
1 48 16 0
1 -48 -16 0
1 25 131 0
1 -25 -131 0
1 27 121 0
1 -27 -121 0
1 71 18 0
1 -71 -18 0
1 21 84 0
1 -21 -84 0
1 131 22 0
1 -131 -22 0
1 138 3 0
1 -138 -3 0
1 83 88 0
1 -83 -88 0
1 112 110 0
1 -112 -110 0
1 68 3 0
1 -68 -3 0
1 82 43 0
1 -82 -43 0
1 85 136 0
1 -85 -136 0
1 35 86 0
1 -35 -86 0
1 113 121 0
1 -113 -121 0
1 63 55 0
1 -63 -55 0
1 69 107 0
1 -69 -107 0
1 21 15 0
1 -21 -15 0
1 80 5 0
1 -80 -5 0
1 63 108 0
1 -63 -108 0
1 9 110 0
1 -9 -110 0
1 131 19 0
1 -131 -19 0
1 59 83 0
1 -59 -83 0
1 76 109 0
1 -76 -109 0
1 119 78 0
1 -119 -78 0
1 6 26 0
1 -6 -26 0
1 53 1 0
1 -53 -1 0
1 51 84 0
1 -51 -84 0
1 62 8 0
1 -62 -8 0
1 23 35 0
1 -23 -35 0
1 117 100 0
1 -117 -100 0
1 113 114 0
1 -113 -114 0
1 33 86 0
1 -33 -86 0
1 34 84 0
1 -34 -84 0
1 118 16 0
1 -118 -16 0
1 3 132 0
1 -3 -132 0
1 42 1 0
1 -42 -1 0
1 63 105 0
1 -63 -105 0
1 35 110 0
1 -35 -110 0
1 92 24 0
1 -92 -24 0
1 27 19 0
1 -27 -19 0
1 43 48 0
1 -43 -48 0
1 44 23 0
1 -44 -23 0
1 138 71 0
1 -138 -71 0
1 50 77 0
1 -50 -77 0
1 135 94 0
1 -135 -94 0
1 50 35 0
1 -50 -35 0
1 64 11 0
1 -64 -11 0
1 107 13 0
1 -107 -13 0
1 108 94 0
1 -108 -94 0
1 69 90 0
1 -69 -90 0
1 10 48 0
1 -10 -48 0
1 74 132 0
1 -74 -132 0
1 35 124 0
1 -35 -124 0
1 51 109 0
1 -51 -109 0
1 125 1 0
1 -125 -1 0
1 69 77 0
1 -69 -77 0
1 87 65 0
1 -87 -65 0
1 6 140 0
1 -6 -140 0
1 137 58 0
1 -137 -58 0
1 23 34 0
1 -23 -34 0
1 123 90 0
1 -123 -90 0
1 62 125 0
1 -62 -125 0
1 37 65 0
1 -37 -65 0
1 9 50 0
1 -9 -50 0
1 134 65 0
1 -134 -65 0
1 7 94 0
1 -7 -94 0
1 97 1 0
1 -97 -1 0
1 40 136 0
1 -40 -136 0
1 30 4 0
1 -30 -4 0
1 8 17 0
1 -8 -17 0
1 138 103 0
1 -138 -103 0
1 43 132 0
1 -43 -132 0
1 52 5 0
1 -52 -5 0
1 140 118 0
1 -140 -118 0
1 139 9 0
1 -139 -9 0
1 130 50 0
1 -130 -50 0
1 34 17 0
1 -34 -17 0
1 9 100 0
1 -9 -100 0
1 128 96 0
1 -128 -96 0
1 115 117 0
1 -115 -117 0
1 81 16 0
1 -81 -16 0
1 49 35 0
1 -49 -35 0
1 50 43 0
1 -50 -43 0
1 74 117 0
1 -74 -117 0
1 2 38 0
1 -2 -38 0
1 124 13 0
1 -124 -13 0
1 17 109 0
1 -17 -109 0
1 1 52 0
1 -1 -52 0
1 120 95 0
1 -120 -95 0
1 25 65 0
1 -25 -65 0
1 96 43 0
1 -96 -43 0
1 20 77 0
1 -20 -77 0
1 74 1 0
1 -74 -1 0
1 26 94 0
1 -26 -94 0
1 139 88 0
1 -139 -88 0
1 25 110 0
1 -25 -110 0
1 29 89 0
1 -29 -89 0
1 74 82 0
1 -74 -82 0
1 9 132 0
1 -9 -132 0
1 49 110 0
1 -49 -110 0
1 100 18 0
1 -100 -18 0
1 7 95 0
1 -7 -95 0
1 113 107 0
1 -113 -107 0
1 137 87 0
1 -137 -87 0
1 55 124 0
1 -55 -124 0
1 128 78 0
1 -128 -78 0
1 53 28 0
1 -53 -28 0
1 36 20 0
1 -36 -20 0
1 53 41 0
1 -53 -41 0
1 11 101 0
1 -11 -101 0
1 30 78 0
1 -30 -78 0
1 7 58 0
1 -7 -58 0
1 37 70 0
1 -37 -70 0
1 95 56 0
1 -95 -56 0
1 40 57 0
1 -40 -57 0
1 134 48 0
1 -134 -48 0
1 46 132 0
1 -46 -132 0
1 136 12 0
1 -136 -12 0
1 91 60 0
1 -91 -60 0
1 20 47 0
1 -20 -47 0
1 134 73 0
1 -134 -73 0
1 80 52 0
1 -80 -52 0
1 50 22 0
1 -50 -22 0
1 58 56 0
1 -58 -56 0
1 44 86 0
1 -44 -86 0
1 118 109 0
1 -118 -109 0
1 49 116 0
1 -49 -116 0
1 36 125 0
1 -36 -125 0
1 119 71 0
1 -119 -71 0
1 42 125 0
1 -42 -125 0
1 74 43 0
1 -74 -43 0
1 136 88 0
1 -136 -88 0
1 116 26 0
1 -116 -26 0
1 117 56 0
1 -117 -56 0
1 113 5 0
1 -113 -5 0
1 110 86 0
1 -110 -86 0
1 122 39 0
1 -122 -39 0
1 96 71 0
1 -96 -71 0
1 100 110 0
1 -100 -110 0
1 42 66 0
1 -42 -66 0
1 133 84 0
1 -133 -84 0
1 126 110 0
1 -126 -110 0
1 42 50 0
1 -42 -50 0
1 28 121 0
1 -28 -121 0
1 91 6 0
1 -91 -6 0
1 123 136 0
1 -123 -136 0
1 138 137 0
1 -138 -137 0
1 102 109 0
1 -102 -109 0
1 91 38 0
1 -91 -38 0
1 20 5 0
1 -20 -5 0
1 71 94 0
1 -71 -94 0
1 35 103 0
1 -35 -103 0
1 66 41 0
1 -66 -41 0
1 140 47 0
1 -140 -47 0
1 37 95 0
1 -37 -95 0
1 29 140 0
1 -29 -140 0
1 138 77 0
1 -138 -77 0
1 76 35 0
1 -76 -35 0
1 63 8 0
1 -63 -8 0
1 116 123 0
1 -116 -123 0
1 69 101 0
1 -69 -101 0
1 50 34 0
1 -50 -34 0
1 107 47 0
1 -107 -47 0
1 23 132 0
1 -23 -132 0
1 138 80 0
1 -138 -80 0
1 133 129 0
1 -133 -129 0
1 131 136 0
1 -131 -136 0
1 27 20 0
1 -27 -20 0
1 64 140 0
1 -64 -140 0
1 20 52 0
1 -20 -52 0
1 117 88 0
1 -117 -88 0
1 115 75 0
1 -115 -75 0
1 113 88 0
1 -113 -88 0
1 138 55 0
1 -138 -55 0
1 59 101 0
1 -59 -101 0
1 138 17 0
1 -138 -17 0
1 12 52 0
1 -12 -52 0
1 75 54 0
1 -75 -54 0
1 60 1 0
1 -60 -1 0
1 58 93 0
1 -58 -93 0
1 137 70 0
1 -137 -70 0
1 64 82 0
1 -64 -82 0
1 111 18 0
1 -111 -18 0
1 135 86 0
1 -135 -86 0
1 51 55 0
1 -51 -55 0
1 100 62 0
1 -100 -62 0
1 139 41 0
1 -139 -41 0
1 10 90 0
1 -10 -90 0
1 98 35 0
1 -98 -35 0
1 74 34 0
1 -74 -34 0
1 50 104 0
1 -50 -104 0
1 50 30 0
1 -50 -30 0
1 28 98 0
1 -28 -98 0
1 60 111 0
1 -60 -111 0
1 123 140 0
1 -123 -140 0
1 64 98 0
1 -64 -98 0
1 134 112 0
1 -134 -112 0
1 8 39 0
1 -8 -39 0
1 100 43 0
1 -100 -43 0
1 139 140 0
1 -139 -140 0
1 47 79 0
1 -47 -79 0
